XCrySDen XSF file
1.0
        5.4661641121         0.0000000000         0.0000000000
        0.0000000000         5.4661641121         0.0000000000
        0.0000000000         0.0000000000         5.4661641121
   Si
    8
Direct
     0.875000000         0.875000000         0.875000000
     0.875000000         0.375000000         0.375000000
     0.375000000         0.875000000         0.375000000
     0.375000000         0.375000000         0.875000000
     0.125000000         0.125000000         0.125000000
     0.125000000         0.625000000         0.625000000
     0.625000000         0.125000000         0.625000000
     0.625000000         0.625000000         0.125000000
